n = 50;
C = 5839;
w = [165,16,148,277,264,411,284,191,243,19,202,127,84,90,461,495,241,245,351,475,65,41,244,138,57,316,214,91,311,264,240,214,481,488,382,263,286,139,453,465,206,81,347,227,276,85,116,295,25,79];
p = [165,16,148,277,264,411,284,191,243,19,202,127,84,90,461,495,241,245,351,475,65,41,244,138,57,316,214,91,311,264,240,214,481,488,382,263,286,139,453,465,206,81,347,227,276,85,116,295,25,79];
